33D32945 STP File, STP Format Version 1.0

SECTION Comments
Name "shell_n15_d2_s19"
Problem "Euclidean Steiner Tree Problem"
Remark "Generated with STPGenerator. 2 dimensions."
END

SECTION Graph
Nodes 15
END

SECTION Coordinates
DD 0 -0.7728983967 -0.6345298010
DD 1 -0.8536042576 0.5209220396
DD 2 -0.9103566873 0.4138244819
DD 3 -0.4718986702 -0.8816527917
DD 4 0.3002715108 -0.9538537728
DD 5 0.1920473389 0.9813856630
DD 6 0.8452585802 0.5343574952
DD 7 0.9897461961 0.1428372055
DD 8 -0.5526824962 -0.8333918996
DD 9 0.9966622477 -0.0816355558
DD 10 -0.9930418421 0.1177620474
DD 11 0.9539173728 0.3000694017
DD 12 -0.6889313892 0.7248265593
DD 13 -0.9927648259 -0.1200749786
DD 14 -0.8752130518 -0.4837376499
END
